headline_hunt/bets/cascade_aux_encoding/comparisons/cadical_50k_2026-04-25/bit10_sr61_n32_bit10_m3304caa0_fill80000000_enf0.log
c --- [ banner ] -------------------------------------------------------------
c 
c CaDiCaL SAT Solver
c Copyright (c) 2016-2025
c A. Biere, M. Fleury, N. Froleyks, K. Fazekas, F. Pollitt, T. Faller
c JKU Linz, University of Freiburg, TU Wien
c 
c Version 3.0.0
c Apple clang version 17.0.0 (clang-1700.6.3.2) -Wall -Wextra -O3 -DNDEBUG -DNCLOSEFROM
c Tue Dec 23 21:53:38 UTC 2025 Darwin Tahoe-arm64.local 25.2.0 arm64
c 
c --- [ limit ] --------------------------------------------------------------
c 
c setting conflict limit to 50000 conflicts (due to '50000')
c 
c --- [ parsing input ] ------------------------------------------------------
c 
c reading DIMACS file from 'cnfs_n32/sr61_n32_bit10_m3304caa0_fill80000000_enf0.cnf'
c opening file to read 'cnfs_n32/sr61_n32_bit10_m3304caa0_fill80000000_enf0.cnf'
c found 'p cnf 11211 46873' header
c parsed 46873 clauses in 0.01 seconds process time
c 
c --- [ options ] ------------------------------------------------------------
c 
c   --seed=5                       (different from default '0')
c 
c --- [ solving ] ------------------------------------------------------------
c 
c time measured in process time since initialization
c 
c  seconds  reduction conflicts       size tier2       variables
c         MB    restarts   redundant    glue  trail         remaining
c          level     rate       size/glu tier1  irredundant
c 
c *  0.01  0  0 0   0  0    0    0 0.0 0 0 2 6  0% 46808 11210 100%
c (  0.01  0  0 0   0  0    0    0 0.0 0 0 2 6  0% 46808 11210 100%
c .  0.01  0  0 0   0  0    0    0 0.0 0 0 2 6  0% 46808 11210 100%
c c  0.02  0  0 0   0  0    0    0 0.0 0 0 2 6  0% 45999 11210 100%
c d  0.03  0  0 0   0  0    0    0 0.0 0 0 2 6  0% 44529 10475 93%
c 2  0.03  0  0 0   0  0    0    0 0.0 0 0 2 6  0% 44475 10475 93%
c f  0.04  0  0 0   0  0    0    0 0.0 0 0 2 6  0% 44409 10541 94%
c e  0.06  0  0 0   0  0    0    0 0.0 0 0 2 6  0% 40991 7197 64%
c P  0.06  0  0 0   0  0    0    0 0.0 0 0 2 6  0% 40991 7197 64%
c )  0.06  0  0 0   0  0    0    0 0.0 0 0 2 6  0% 40991 7197 64%
c {  0.06  0  0 0   0  0    0    0 0.0 0 0 2 6  0% 40991 7197 64%
c -  0.06  0 367 1  46 39  302  212 1.4 6 4 2 6  8% 40991 7197 64%
c -  0.07  0 179 2  88 23  738  496 1.5 7 4 2 6  5% 40991 7197 64%
c }  0.07  0 150 2 102 20 1001  665 1.6 7 4 2 6  5% 40991 7197 64%
c [  0.07  0  0 2 102  0 1001  665 0.0 0 0 2 6  0% 40991 7197 64%
c O  0.07  0 1082 2 102 1083 1002  666 2.0 222 110 2 6 44% 40991 7197 64%
c ]  0.08  0 1073 2 102 14 1087  748 2.0 165 83 2 6 36% 40991 7197 64%
c {  0.08  0 150 2 102 20 1087  748 1.6 7 4 2 6  5% 40991 7197 64%
c -  0.08  0 134 3 103 15 1417  802 1.7 7 4 2 6  4% 40991 7197 64%
c 2  0.09  0 100 3 139 12 2183 1293 1.7 7 4 2 6  4% 40931 7197 64%
c 
c  seconds   reduction conflicts       size tier2      variables
c         MB     restarts   redundant    glue  trail        remaining
c           level     rate       size/glu tier1  irredundant
c 
c d  0.09  0 100 3 139 12 2183 1074 1.7 7 4 2 6  4% 40819 7094 63%
c c  0.10  0 100 3 139 12 2183 1074 1.7 7 4 2 6  4% 40689 7094 63%
c d  0.10  0 100 3 139 12 2183  865 1.7 7 4 2 6  4% 40653 7076 63%
c 2  0.10  0 100 3 139 12 2183  863 1.7 7 4 2 6  4% 40643 7076 63%
c t  0.11  0 100 3 139 12 2183  863 1.7 7 4 2 6  4% 40642 7076 63%
c -  0.11  0 98 4 146 12 2358  750 1.7 7 4 2 6  4% 40642 7076 63%
c O  0.11  0 89 4 175 11 3003 1219 1.7 7 4 2 6  4% 40642 7076 63%
c -  0.12  0 99 5 218 11 3573 1496 1.7 7 4 2 6  6% 40642 7076 63%
c s  0.12  0 91 5 229 10 4124 1851 1.7 6 4 2 6  5% 40608 7076 63%
c t  0.12  0 91 5 229 10 4124 1851 1.7 6 4 2 6  5% 40601 7076 63%
c e  0.14  0 91 5 229 10 4124 1816 1.7 6 4 2 6  5% 40497 6515 58%
c s  0.15  0 91 5 229 10 4124 1816 1.7 6 4 2 6  5% 40463 6515 58%
c e  0.15  0 91 5 229 10 4124 1816 1.7 6 4 2 6  5% 40463 6509 58%
c c  0.16  0 89 5 267 10 4684 1779 1.7 6 4 2 6  5% 40266 6457 58%
c d  0.17  0 89 5 267 10 4684 1647 1.7 6 4 2 6  5% 40222 6435 57%
c -  0.17  0 92 6 348 12 5067 1351 1.7 7 4 2 3  6% 40222 6435 57%
c #  0.18  0 89 6 433 12 6004 2014 1.7 6 4 2 3  6% 40220 6435 57%
c }  0.18  0 87 6 460 11 6456 2314 1.7 6 4 2 3  5% 40220 6435 57%
c [  0.18  0 1073 6 460 14 6456 2314 2.0 165 83 2 6 63% 40220 6435 57%
c -  0.19  0 303 7 460  4 6846 2006 1.7 52 30 2 6 18% 40220 6435 57%
c 
c  seconds   reduction conflicts       size   tier2       variables
c         MB     restarts   redundant     glue    trail        remaining
c           level     rate       size/glue  tier1   irredundant
c 
c c  0.21  0 215 7 460  3 7287 2076 1.7 42 25 4 15 13% 40002 6387 57%
c d  0.21  0 215 7 460  3 7287 1968 1.7 42 25 4 15 13% 39958 6365 57%
c =  0.21  0 215 7 460  3 7287 1946 1.7 42 25 4 15 13% 39930 6305 56%
c ]  0.24  0 199 7 460  3 7426 2079 2.3 67 29 4 15 18% 39930 6305 56%
c {  0.24  0 87 7 460 11 7426 2079 1.7 6 4 2 3  5% 39930 6305 56%
c -  0.25  0 85 8 581 11 8915 2191 1.7 7 4 2 3  6% 39930 6305 56%
c d  0.29  0 89 8 824 13 9984 2716 2.1 12 6 2 3 11% 39930 6254 56%
c c  0.30  0 89 8 824 13 9984 2716 2.1 12 6 2 3 11% 39776 6254 56%
c d  0.30  0 89 8 824 13 9984 2648 2.1 12 6 2 3 11% 39734 6233 56%
c 2  0.30  0 89 8 824 13 9984 2648 2.1 12 6 2 3 11% 39726 6233 56%
c =  0.31  0 89 8 824 13 9984 2648 2.1 12 6 2 3 11% 39717 6222 55%
c t  0.31  0 89 8 824 13 9984 2647 2.1 12 6 2 3 11% 39717 6222 55%
c f  0.32  0 89 8 824 13 9984 2647 2.1 12 6 2 3 10% 39265 6671 60%
c B  0.32  0 89 8 830 14 10005 2666 2.1 12 6 2 3 10% 39265 6671 60%
c }  0.33  0 89 8 869 14 10159 2802 2.1 12 6 2 3 11% 39265 6671 60%
c [  0.33  0 199 8 869  3 10159 2802 2.3 67 29 4 15 17% 39265 6671 60%
c ]  0.40  0 185 8 870  2 10588 3210 2.9 125 43 4 15 29% 39265 6671 60%
c {  0.40  0 89 8 870 14 10588 3210 2.1 12 6 2 3 11% 39265 6671 60%
c -  0.49  0 91 9 1052 14 11275 2477 2.5 25 10 2 3 17% 39265 6671 60%
c }  0.50  0 91 9 1098 14 11546 2739 2.5 26 10 2 3 17% 39265 6671 60%
c 
c  seconds   reductions  conflicts        size   tier2       variables
c         MB     restarts     redundant      glue    trail        remaining
c           level      rate        size/glue   tier1   irredundant
c 
c [  0.50  0 185 9 1098  2 11546 2739 2.9 125 43 4 15 29% 39265 6671 60%
c ]  0.63  0 168 9 1099  2 12283 3429 3.4 170 50 4 15 39% 39265 6671 60%
c {  0.63  0 91 9 1099 14 12283 3429 2.5 26 10 2 3 17% 39265 6671 60%
c p  0.66  0 93 9 1196 15 12768 4458 2.5 27 11 2 3 17% 39265 6671 60%
c =  0.69  0 93 9 1196 15 12768 4293 2.5 27 11 2 3 17% 39261 6589 59%
c u  0.70  0 93 9 1196 15 12768 3337 2.5 27 11 2 3 17% 38886 6589 59%
c v  0.70  0 93 9 1196 15 12768 3053 2.5 27 11 2 3 17% 38886 6589 59%
c w  0.71  0 93 9 1196 15 12768 3052 2.5 27 11 2 3 17% 38886 6589 59%
c x  0.71  0 93 9 1196 15 12768 3052 2.5 27 11 2 3 17% 38311 6589 59%
c t  0.71  0 93 9 1196 15 12768 3050 2.5 27 11 2 3 17% 38311 6589 59%
c 2  0.71  0 93 9 1196 15 12768 3040 2.5 27 11 2 3 17% 38303 6589 59%
c f  0.72  0 93 9 1196 15 12768 3034 2.5 27 11 2 3 17% 38222 6673 60%
c -  0.77  0 93 10 1361 15 13929 1973 2.5 28 11 1 2 17% 38222 6673 60%
c s  0.78  0 95 10 1375 14 14669 2499 2.5 27 11 1 2 17% 37399 6673 60%
c t  0.78  0 95 10 1375 14 14669 2499 2.5 27 11 1 2 17% 37397 6673 60%
c e  0.79  0 95 10 1375 14 14669 2066 2.5 27 11 1 2 17% 35758 5960 53%
c s  0.79  0 95 10 1375 14 14669 2029 2.5 27 11 1 2 17% 35310 5960 53%
c e  0.80  0 95 10 1375 14 14669 2007 2.5 27 11 1 2 17% 35286 5957 53%
c W  0.82  0 96 10 1398 14 15006 2300 2.4 27 11 1 2 20% 35286 5957 53%
c 2  0.85  0 98 10 1532 15 15636 2832 2.5 29 12 1 2 23% 35286 5957 53%
c 
c  seconds  reductions   conflicts       size   tier2      variables
c         MB     restarts     redundant     glue   trail        remaining
c          level       rate        size/glue  tier1  irredundant
c 
c d  0.85  0 98 10 1532 15 15636 2816 2.5 29 12 1 2 23% 35271 5945 53%
c p  0.85  0 98 10 1532 15 15636 2891 2.5 29 12 1 2 23% 35271 5945 53%
c 2  0.85  0 98 10 1532 15 15636 2891 2.5 29 12 1 2 23% 35269 5945 53%
c =  0.86  0 98 10 1532 15 15636 2878 2.5 29 12 1 2 23% 35257 5926 53%
c t  0.86  0 98 10 1532 15 15636 2878 2.5 29 12 1 2 23% 35256 5926 53%
c 2  0.86  0 98 10 1532 15 15636 2877 2.5 29 12 1 2 23% 35253 5926 53%
c f  0.87  0 98 10 1532 15 15636 2858 2.5 29 12 1 2 23% 35256 5942 53%
c -  0.92  0 100 11 1718 16 16879 2486 2.5 31 13 1 2 24% 35256 5942 53%
c }  0.93  0 100 11 1755 16 17062 2655 2.5 31 13 1 2 23% 35256 5942 53%
c [  0.93  0 168 11 1755  2 17062 2655 3.4 170 50 4 15 45% 35256 5942 53%
c ]  1.13  0 147 11 1755  2 18243 3781 3.8 181 48 4 15 50% 35256 5942 53%
c {  1.13  0 100 11 1755 16 18243 3781 2.5 31 13 1 2 23% 35256 5942 53%
c d  1.15  0 100 11 1828 16 18576 4078 2.5 32 13 1 2 24% 35235 5939 53%
c p  1.15  0 100 11 1828 16 18576 4530 2.5 32 13 1 2 24% 35235 5939 53%
c c  1.16  0 100 11 1828 16 18576 4530 2.5 32 13 1 2 24% 35221 5939 53%
c =  1.18  0 100 11 1828 16 18576 4519 2.5 32 13 1 2 24% 35206 5932 53%
c u  1.19  0 100 11 1828 16 18576 3861 2.5 32 13 1 2 24% 35206 5932 53%
c v  1.19  0 100 11 1828 16 18576 3633 2.5 32 13 1 2 24% 35206 5932 53%
c w  1.19  0 100 11 1828 16 18576 3632 2.5 32 13 1 2 24% 35206 5932 53%
c f  1.21  0 100 11 1828 16 18576 3465 2.5 32 13 1 2 23% 35253 6046 54%
c 
c  seconds   reductions   conflicts       size   tier2      variables
c         MB      restarts     redundant     glue   trail        remaining
c           level       rate        size/glue  tier1  irredundant
c 
c -  1.32  0 102 12 2090 16 20126 2778 2.5 37 15 1 2 25% 35253 6046 54%
c F  1.33  0 102 12 2116 16 21011 3593 2.5 36 15 1 2 24% 35253 6046 54%
c d  1.35  0 103 12 2157 15 21587 4099 2.5 36 15 1 2 24% 35241 6037 54%
c p  1.35  0 103 12 2157 15 21587 4381 2.5 36 15 1 2 24% 35241 6037 54%
c c  1.36  0 103 12 2157 15 21587 4381 2.5 36 15 1 2 24% 35171 6037 54%
c d  1.36  0 103 12 2157 15 21587 4365 2.5 36 15 1 2 24% 35147 6025 54%
c 2  1.36  0 103 12 2157 15 21587 4364 2.5 36 15 1 2 24% 35139 6025 54%
c =  1.37  0 103 12 2157 15 21587 4364 2.5 36 15 1 2 24% 35137 6023 54%
c 2  1.37  0 103 12 2157 15 21587 4362 2.5 36 15 1 2 24% 35137 6023 54%
c f  1.38  0 103 12 2157 15 21587 4264 2.5 36 15 1 2 23% 35150 6105 54%
c }  1.47  0 104 12 2434 16 23154 5692 2.5 39 16 1 2 24% 35150 6105 54%
c [  1.47  0 147 12 2434  2 23154 5692 3.8 181 48 4 15 48% 35150 6105 54%
c -  1.59  0 147 13 2434  2 23673 3564 3.7 193 52 4 15 52% 35150 6105 54%
c p  1.74  0 146 13 2435  2 24664 4827 3.5 190 55 4 15 52% 35146 6102 54%
c c  1.75  0 146 13 2435  2 24664 4827 3.5 190 55 4 15 52% 35138 6102 54%
c d  1.75  0 146 13 2435  2 24664 4827 3.5 190 55 4 15 52% 35136 6101 54%
c 2  1.75  0 146 13 2435  2 24664 4825 3.5 190 55 4 15 52% 35136 6101 54%
c u  1.78  0 146 13 2435  2 24664 4271 3.5 190 55 4 15 52% 35135 6101 54%
c v  1.78  0 146 13 2435  2 24664 4025 3.5 190 55 4 15 52% 35135 6101 54%
c w  1.79  0 146 13 2435  2 24664 4023 3.5 190 55 4 15 52% 35135 6101 54%
c 
c  seconds   reductions   conflicts        size   tier2       variables
c         MB      restarts     redundant      glue    trail        remaining
c           level       rate        size/glue   tier1   irredundant
c 
c x  1.79  0 146 13 2435  2 24664 4023 3.5 190 55 4 15 52% 35107 6101 54%
c t  1.79  0 146 13 2435  2 24664 4022 3.5 190 55 4 15 52% 35107 6101 54%
c f  1.80  0 146 13 2435  2 24664 3958 3.5 190 55 4 15 52% 35136 6136 55%
c ]  1.82  0 146 13 2435  2 24845 4119 3.4 188 55 4 15 52% 35136 6136 55%
c {  1.82  0 104 13 2435 16 24845 4119 2.5 39 16 1 2 24% 35136 6136 55%
c -  1.92  0 104 14 2672 15 27519 3721 2.5 41 16 1 2 23% 35136 6136 55%
c d  1.93  0 104 14 2681 15 27803 3828 2.5 40 16 1 2 23% 35124 6107 54%
c p  1.93  0 104 14 2681 15 27803 3892 2.5 40 16 1 2 23% 35124 6107 54%
c c  1.94  0 104 14 2681 15 27803 3892 2.5 40 16 1 2 23% 35028 6107 54%
c d  1.94  0 104 14 2681 15 27803 3839 2.5 40 16 1 2 23% 35004 6095 54%
c 2  1.94  0 104 14 2681 15 27803 3838 2.5 40 16 1 2 23% 35002 6095 54%
c f  1.94  0 104 14 2681 15 27803 3836 2.5 40 16 1 2 23% 34985 6108 54%
c B  1.96  0 104 14 2714 15 28013 4028 2.5 41 16 1 2 23% 34985 6108 54%
c s  2.04  0 105 14 2967 15 30068 5737 2.5 42 17 1 2 23% 34791 6108 54%
c t  2.04  0 105 14 2967 15 30068 5736 2.5 42 17 1 2 23% 34791 6108 54%
c e  2.05  0 105 14 2967 15 30068 5469 2.5 42 17 1 2 23% 34630 6024 54%
c s  2.05  0 105 14 2967 15 30068 5438 2.5 42 17 1 2 23% 34616 6024 54%
c e  2.05  0 105 14 2967 15 30068 5434 2.5 42 17 1 2 23% 34616 6023 54%
c -  2.12  0 107 15 3148 15 31666 4440 2.5 42 17 1 2 24% 34616 6023 54%
c 2  2.12  0 107 15 3148 15 31666 4439 2.5 42 17 1 2 24% 34616 6023 54%
c 
c  seconds   reductions   conflicts       size   tier2      variables
c         MB      restarts     redundant     glue   trail        remaining
c           level       rate        size/glue  tier1  irredundant
c 
c c  2.13  0 107 15 3148 15 31666 4412 2.5 42 17 1 2 24% 34543 6009 54%
c d  2.13  0 107 15 3148 15 31666 4388 2.5 42 17 1 2 24% 34523 5999 54%
c 2  2.13  0 107 15 3148 15 31666 4388 2.5 42 17 1 2 24% 34521 5999 54%
c u  2.15  0 107 15 3148 15 31666 3691 2.5 42 17 1 2 24% 34521 5999 54%
c v  2.15  0 107 15 3148 15 31666 3489 2.5 42 17 1 2 24% 34521 5999 54%
c w  2.15  0 107 15 3148 15 31666 3489 2.5 42 17 1 2 24% 34521 5999 54%
c t  2.15  0 107 15 3148 15 31666 3488 2.5 42 17 1 2 24% 34521 5999 54%
c f  2.16  0 107 15 3148 15 31666 3488 2.5 42 17 1 2 24% 34474 6021 54%
c }  2.22  0 108 15 3330 15 33028 4713 2.5 43 18 1 2 24% 34474 6021 54%
c [  2.22  0 146 15 3330  2 33028 4713 3.4 188 55 4 15 52% 34474 6021 54%
c I  2.55  0 146 15 3332  2 36016 7581 3.4 186 55 4 15 51% 34474 6021 54%
c -  2.56  0 146 16 3332  2 36116 4402 3.4 184 54 4 15 50% 34474 6021 54%
c d  2.56  0 146 16 3332  2 36116 4394 3.4 184 54 4 15 50% 34474 6019 54%
c p  2.56  0 146 16 3332  2 36116 4703 3.4 184 54 4 15 50% 34474 6019 54%
c c  2.57  0 146 16 3332  2 36116 4703 3.4 184 54 4 15 50% 34466 6019 54%
c u  2.58  0 146 16 3332  2 36116 4407 3.4 184 54 4 15 50% 34464 6018 54%
c v  2.58  0 146 16 3332  2 36116 4169 3.4 184 54 4 15 50% 34464 6018 54%
c w  2.58  0 146 16 3332  2 36116 4169 3.4 184 54 4 15 50% 34464 6018 54%
c f  2.58  0 146 16 3332  2 36116 4130 3.4 184 54 4 15 50% 34487 6034 54%
c ]  2.65  0 146 16 3333  2 36576 4547 3.3 183 55 4 15 50% 34487 6034 54%
c 
c  seconds   reductions   conflicts       size   tier2      variables
c         MB      restarts     redundant     glue   trail        remaining
c           level       rate        size/glue  tier1  irredundant
c 
c {  2.65  0 108 16 3333 15 36576 4547 2.5 43 18 1 2 24% 34487 6034 54%
c -  2.88  0 110 17 3948 16 40867 4924 2.5 47 19 1 2 25% 34487 6034 54%
c d  2.88  0 110 17 3948 16 40867 4922 2.5 47 19 1 2 25% 34487 6033 54%
c p  2.88  0 110 17 3948 16 40867 5149 2.5 47 19 1 2 25% 34487 6033 54%
c u  2.90  0 110 17 3948 16 40867 4834 2.5 47 19 1 2 25% 34485 6033 54%
c v  2.90  0 110 17 3948 16 40867 4637 2.5 47 19 1 2 25% 34485 6033 54%
c x  2.90  0 110 17 3948 16 40867 4637 2.5 47 19 1 2 25% 34476 6033 54%
c t  2.90  0 110 17 3948 16 40867 4636 2.5 47 19 1 2 25% 34476 6033 54%
c W  3.09  0 113 17 4297 15 45017 8455 2.5 48 19 1 2 25% 34476 6033 54%
c -  3.11  0 113 18 4300 15 45921 5751 2.5 47 19 1 2 26% 34476 6033 54%
c d  3.11  0 113 18 4300 15 45921 5736 2.5 47 19 1 2 26% 34472 6026 54%
c p  3.11  0 113 18 4300 15 45921 5740 2.5 47 19 1 2 26% 34472 6026 54%
c 2  3.11  0 113 18 4300 15 45921 5740 2.5 47 19 1 2 26% 34470 6026 54%
c f  3.13  0 113 18 4300 15 45921 5740 2.5 47 19 1 2 26% 34443 6034 54%
c }  3.15  0 113 18 4344 15 46577 6331 2.5 47 19 1 2 26% 34443 6034 54%
c [  3.15  0 146 18 4344  2 46577 6331 3.3 183 55 4 15 50% 34443 6034 54%
c ]  3.65  0 144 18 4344  1 49585 9227 3.4 197 59 4 15 54% 34443 6034 54%
c {  3.65  0 113 18 4344 15 49585 9227 2.5 47 19 1 2 26% 34443 6034 54%
c }  3.67  0 114 18 4390 15 50001 9604 2.5 47 19 1 2 26% 34443 6034 54%
c ?  3.67  0 114 18 4390 15 50001 9604 2.5 47 19 1 2 26% 34443 6034 54%
c 
c --- [ result ] -------------------------------------------------------------
c 
c UNKNOWN
c 
c --- [ run-time profiling ] -------------------------------------------------
c 
c process time taken by individual solving procedures
c (percentage relative to process time for solving)
c 
c         3.09   84.41% search
c         1.65   44.98% stable
c         1.39   37.92% unstable
c         0.57   15.53% simplify
c         0.14    3.74% sweep
c         0.12    3.26% congruence
c         0.09    2.48% factor
c         0.08    2.07% vivify
c         0.05    1.42% walk
c         0.05    1.33% preprocess
c         0.04    1.21% elim
c         0.02    0.58% subsume
c         0.01    0.30% fastelim
c         0.01    0.20% parse
c         0.01    0.18% probe
c         0.01    0.16% ternary
c         0.00    0.14% backbone
c         0.00    0.08% lucky
c   =================================
c         3.66   99.79% solve
c 
c last line shows process time for solving
c (percentage relative to total process time)
c 
c --- [ statistics ] ---------------------------------------------------------
c 
c chronological:             17968        35.94 %  of conflicts
c conflicts:                 50001     13664.86    per second
c backbone:                 347166      2865.35 %  of vars
c decisions:                566065    154700.86    per second
c eliminated:                 4712        38.89 %  of all variables
c factored:                    905        14.45 %  of variables
c fixed:                         1         0.01 %  of all variables
c learned:                   45639        91.28 %  per conflict
c learned_lits:            5136961       100.00 %  learned literals
c minimized:                     0         0.00 %  learned literals
c shrunken:                 240835         4.69 %  learned literals
c minishrunken:            1081874        21.06 %  learned literals
c otfs:                       2903         5.81 %  of conflict
c propagations:           32088389         8.77 M  per second
c reduced:                   26624        53.25 %  per conflict
c rephased:                      9      5555.67    interval
c restarts:                   4390        11.39    interval
c stabilizing:                   8        23.10 %  of conflicts
c substituted:                1369        11.30 %  of all variables
c sweep equivs:                179         8.02 %  of swept variables
c subsumed:                   8821         6.27 %  of all clauses
c strengthened:               5690         4.04 %  of all clauses
c ticks:                 211995017         6.73    propagation
c vivified:                   2816         2.00 %  of all clauses
c walked:                        2     25000.50    interval
c weakened:                  31878         2.90    average size
c congruence:                   13      3846.23    interval
c 
c seconds are measured in process time for solving
c 
c --- [ glue usage ] ---------------------------------------------------------
c 
c focused glue 1 used 133099 clauses 68.69% accumulated 68.69% tier1
c focused glue 2 used 31294 clauses 16.15% accumulated 84.84% tier2
c 
c stable glue 4 used 3466 clauses 1.172% accumulated 92.14% tier1
c stable glue 5 used 3763 clauses 1.272% accumulated 93.41%
c stable glue 6-13 used 9693 clauses 3.278% accumulated 96.69%
c stable glue 14 used 342 clauses 0.115% accumulated 96.81%
c stable glue 15 used 319 clauses 0.107% accumulated 96.92% tier2
c 
c 
c --- [ resources ] ----------------------------------------------------------
c 
c total process time since initialization:         3.67    seconds
c total real time since initialization:            3.72    seconds
c maximum resident set size of process:        43392.00    MB
c 
c --- [ shutting down ] ------------------------------------------------------
c 
c exit 0
